p cnf 27 231
-2 3 -5 1 -4 0
1 4 -5 -3 -2 0
13 -12 11 -14 -15 0
24 -25 23 27 -26 0
-8 6 7 -9 10 0
9 -6 -10 8 -7 0
-4 -2 5 -3 -1 0
19 2 22 11 -7 0
-8 9 7 10 6 0
-12 -11 16 -14 13 0
-4 15 -9 -21 25 0
12 14 13 15 11 0
10 -6 9 7 -8 0
7 6 10 -9 8 0
3 -1 -4 -2 5 0
9 -7 6 10 8 0
-5 -1 -4 -2 -3 0
-6 -7 8 10 9 0
26 -24 22 23 27 0
10 8 7 -6 -9 0
11 -4 7 19 -26 0
6 9 10 -8 -7 0
5 3 -1 2 4 0
20 -17 -19 -18 21 0
18 19 17 -20 21 0
-17 -18 -20 19 21 0
24 25 -22 27 23 0
8 -7 -10 9 6 0
17 -18 -19 21 -20 0
-16 15 12 -11 -13 0
21 -20 -19 -17 18 0
-19 21 18 17 20 0
-19 20 17 -18 -21 0
20 -21 -19 -18 -17 0
8 -7 10 -9 6 0
-5 10 27 21 -14 0
-2 3 -1 -5 -4 0
-21 -17 18 20 -19 0
-24 23 -22 27 -25 0
-9 -7 6 -8 -10 0
-7 2 15 -24 -19 0
16 -13 12 11 14 0
14 17 7 24 1 0
-22 -26 -24 -25 27 0
10 8 9 7 6 0
-25 27 -24 -22 -23 0
-14 13 -16 -15 -11 0
-21 -20 -17 19 -18 0
-2 3 1 -4 5 0
-3 -2 1 5 4 0
3 -4 1 2 5 0
19 -18 -21 -17 20 0
-13 12 16 15 -14 0
-12 -15 -13 -16 14 0
-25 27 26 -24 23 0
-5 3 1 4 -2 0
13 11 12 14 -16 0
-14 -12 15 11 16 0
-3 2 1 4 -5 0
-25 23 22 24 -27 0
12 -13 -11 -15 16 0
-9 4 18 11 26 0
-12 -14 16 -15 13 0
-10 -9 -8 6 7 0
8 -9 -6 7 -10 0
-5 -20 7 -27 -12 0
-26 27 -22 23 24 0
21 17 -20 19 -18 0
-15 11 -14 -16 -13 0
4 -1 -2 -5 3 0
-15 -25 17 -3 6 0
19 -18 -21 -20 17 0
-14 -16 -12 -11 -15 0
12 -13 16 11 -15 0
-2 -7 -20 26 -15 0
21 -18 19 20 17 0
20 -21 -19 17 18 0
11 -12 -14 -15 -13 0
-16 12 -14 -11 -15 0
-24 -27 25 22 -26 0
-21 20 19 17 -18 0
-15 16 11 14 -13 0
-24 -23 -26 27 -25 0
-24 27 25 -22 26 0
21 19 -17 -18 20 0
14 17 24 -2 -10 0
-11 12 15 16 -14 0
-3 4 -1 2 -5 0
14 -16 -12 11 -15 0
5 -18 -12 -10 -25 0
11 12 13 -14 -15 0
11 -12 -14 13 16 0
22 27 -24 -23 -26 0
-17 20 21 18 19 0
-26 -23 24 25 -22 0
4 -3 2 -1 5 0
2 5 3 -1 -4 0
-26 23 22 -24 -27 0
-23 25 -26 27 -24 0
19 -17 18 -21 -20 0
19 -21 -20 17 18 0
-15 -11 -14 16 -13 0
-3 2 4 1 5 0
3 -5 1 -4 2 0
-3 -1 -4 2 5 0
12 2 -27 19 7 0
-24 27 26 -23 -22 0
-23 25 24 22 26 0
-2 4 -1 -5 -3 0
14 12 -11 -16 15 0
-25 22 -26 -24 27 0
4 5 3 1 -2 0
1 2 3 4 -5 0
-19 21 -20 17 18 0
3 1 5 2 4 0
23 14 -1 -10 -19 0
24 22 -23 26 -25 0
6 -10 8 -7 -9 0
-22 -27 -23 25 -24 0
-11 15 -12 -14 16 0
-26 -15 -17 1 7 0
-2 -1 4 5 -3 0
-16 15 -12 -11 -14 0
-25 26 -22 -27 -23 0
-14 11 16 -12 -13 0
7 -6 -9 -8 -10 0
-22 -26 27 -23 -25 0
10 -8 9 -7 -6 0
18 -19 21 20 -17 0
-15 -14 11 -16 12 0
14 3 -22 -17 -7 0
-4 -3 -2 -5 1 0
6 9 7 -10 8 0
22 23 27 -26 25 0
24 -25 -26 -27 -22 0
-16 -15 11 -13 12 0
16 -13 12 -14 11 0
-22 -27 -26 24 23 0
24 -26 23 -25 -27 0
11 15 -13 16 -14 0
26 22 -27 -24 25 0
-26 -27 -23 22 25 0
-27 -26 24 -22 -23 0
-24 27 -26 -22 23 0
-13 -12 -16 -11 -15 0
-20 -18 17 -19 -21 0
-17 -20 -21 -19 -18 0
-15 -6 -17 4 25 0
-12 14 15 13 11 0
-18 -13 -2 10 23 0
-2 3 5 -1 4 0
-13 -16 11 15 12 0
22 -27 25 -23 26 0
11 25 -7 -20 4 0
7 9 -10 -6 -8 0
-11 16 13 -15 12 0
-27 -26 -22 -23 -24 0
9 8 -6 -10 7 0
26 -23 -22 24 25 0
-8 9 -7 -10 -6 0
9 8 7 10 -6 0
-5 -3 -4 2 -1 0
-4 1 5 2 -3 0
-13 -12 11 -16 15 0
13 -15 -12 16 -11 0
10 -13 -22 3 -17 0
-12 16 14 11 -13 0
26 -23 -27 -24 25 0
-15 -16 -14 13 -12 0
-13 15 12 -11 14 0
-12 14 -11 15 -13 0
15 -12 13 -16 14 0
24 -22 25 -27 26 0
-24 -27 23 -26 25 0
14 12 15 -11 13 0
18 -19 -20 -17 -21 0
15 14 16 11 13 0
22 -5 -6 -19 12 0
13 -15 -16 14 -11 0
-13 -11 12 14 16 0
-26 -27 23 -25 22 0
20 18 21 19 17 0
-22 -23 -27 26 -24 0
-12 11 -14 15 13 0
16 13 -12 15 -14 0
22 -23 24 27 26 0
-11 14 -16 -15 -12 0
23 25 -27 -22 26 0
3 -7 21 -23 -15 0
-15 14 -13 -12 16 0
13 12 -16 -11 -15 0
-16 14 -13 -15 11 0
-8 -7 -9 10 -6 0
-15 -11 16 13 -14 0
-5 2 -1 3 -4 0
-11 14 16 13 15 0
-12 -15 -14 11 -16 0
-20 -7 -27 16 3 0
-14 -15 -13 11 12 0
-27 23 -22 26 -25 0
25 24 -22 -26 -27 0
-23 22 -27 -26 24 0
23 -25 27 -24 -26 0
15 -11 -16 13 12 0
-13 15 -11 -12 -14 0
11 -12 13 16 -15 0
-4 1 -5 -3 2 0
22 -24 26 -27 -23 0
-24 25 -22 27 -26 0
-25 -23 -24 -27 -26 0
17 18 -21 19 20 0
17 -13 27 8 1 0
22 -25 27 26 -24 0
-8 -9 6 -7 10 0
-9 -10 -6 8 -7 0
-15 13 -11 14 12 0
-19 -20 18 17 -21 0
25 -22 27 -26 24 0
-18 21 -19 -17 -20 0
20 -19 21 17 -18 0
12 11 13 16 -15 0
12 -14 -16 15 -11 0
-5 2 3 4 -1 0
-26 -25 23 22 -24 0
27 26 23 -22 24 0
11 -12 14 13 16 0
-2 5 -3 1 -4 0
16 -13 -12 15 11 0
23 25 24 26 22 0
-19 -9 15 -27 -4 0
-23 -22 25 -24 27 0
